(set-info :smt-lib-version 2.6)
(set-logic UF)
(set-info :source |Benchmarks from the paper: "Extending Sledgehammer with SMT Solvers" by Jasmin Blanchette, Sascha Bohme, and Lawrence C. Paulson, CADE 2011.  Translated to SMT2 by Andrew Reynolds and Morgan Deters.|)
(set-info :category "industrial")
(set-info :status unknown)
(declare-sort S1 0)
(declare-sort S2 0)
(declare-sort S3 0)
(declare-sort S4 0)
(declare-sort S5 0)
(declare-sort S6 0)
(declare-sort S7 0)
(declare-sort S8 0)
(declare-sort S9 0)
(declare-sort S10 0)
(declare-sort S11 0)
(declare-sort S12 0)
(declare-sort S13 0)
(declare-sort S14 0)
(declare-sort S15 0)
(declare-sort S16 0)
(declare-sort S17 0)
(declare-sort S18 0)
(declare-sort S19 0)
(declare-sort S20 0)
(declare-sort S21 0)
(declare-sort S22 0)
(declare-sort S23 0)
(declare-sort S24 0)
(declare-sort S25 0)
(declare-sort S26 0)
(declare-sort S27 0)
(declare-sort S28 0)
(declare-sort S29 0)
(declare-sort S30 0)
(declare-sort S31 0)
(declare-fun f1 () S1)
(declare-fun f2 () S1)
(declare-fun f3 (S4 S3) S1)
(declare-fun f4 (S5 S3) S4)
(declare-fun f5 (S2) S5)
(declare-fun f6 (S6 S2) S1)
(declare-fun f7 (S7 S3) S6)
(declare-fun f8 (S8 S3) S7)
(declare-fun f9 () S8)
(declare-fun f10 (S11 S10) S1)
(declare-fun f11 (S12 S9) S11)
(declare-fun f12 (S4) S12)
(declare-fun f13 (S3 S4) S1)
(declare-fun f14 (S13 S10) S3)
(declare-fun f15 (S14 S9) S13)
(declare-fun f16 () S14)
(declare-fun f17 (S17 S16) S1)
(declare-fun f18 (S18 S15) S17)
(declare-fun f19 (S11) S18)
(declare-fun f20 (S10 S11) S1)
(declare-fun f21 (S19 S16) S10)
(declare-fun f22 (S20 S15) S19)
(declare-fun f23 () S20)
(declare-fun f24 (S21 S15 S22 S9 S23) S1)
(declare-fun f25 () S21)
(declare-fun f26 () S15)
(declare-fun f27 () S22)
(declare-fun f28 (S24 S9) S9)
(declare-fun f29 (S25 S26) S24)
(declare-fun f30 (S27 S9) S25)
(declare-fun f31 () S27)
(declare-fun f32 (S28 S29) S9)
(declare-fun f33 () S28)
(declare-fun f34 () S29)
(declare-fun f35 () S26)
(declare-fun f36 () S9)
(declare-fun f37 () S23)
(declare-fun f38 (S21 S23 S23) S1)
(declare-fun f39 () S23)
(declare-fun f40 () S26)
(declare-fun f41 () S15)
(declare-fun f42 () S9)
(declare-fun f43 (S30 S21) S1)
(declare-fun f44 () S30)
(declare-fun f45 (S31 S22) S11)
(declare-fun f46 (S21) S31)
(declare-fun f47 () S16)
(declare-fun f48 () S16)
(declare-fun f49 (S21) S2)
(declare-fun f50 (S2 S6) S1)
(assert (not (= f1 f2)))
(assert (forall ((?v0 S2) (?v1 S3) (?v2 S3)) (= (= (f3 (f4 (f5 ?v0) ?v1) ?v2) f1) (= (f6 (f7 (f8 f9 ?v1) ?v2) ?v0) f1))))
(assert (forall ((?v0 S4) (?v1 S9) (?v2 S10)) (= (= (f10 (f11 (f12 ?v0) ?v1) ?v2) f1) (= (f13 (f14 (f15 f16 ?v1) ?v2) ?v0) f1))))
(assert (forall ((?v0 S11) (?v1 S15) (?v2 S16)) (= (= (f17 (f18 (f19 ?v0) ?v1) ?v2) f1) (= (f20 (f21 (f22 f23 ?v1) ?v2) ?v0) f1))))
(assert (not (= (f24 f25 f26 f27 (f28 (f29 (f30 f31 (f32 f33 f34)) f35) f36) f37) f1)))
(assert (exists ((?v0 S23)) (and (= (f24 f25 f26 f27 f36 ?v0) f1) (= (f38 f25 ?v0 f39) f1))))
(assert (= (f24 f25 f26 f27 (f32 f33 f34) f39) f1))
(assert (= f35 f40))
(assert (= f37 f39))
(assert (= (f24 f25 f26 f27 (f32 f33 f34) f39) f1))
(assert (exists ((?v0 S23)) (and (= (f24 f25 f26 f27 f36 ?v0) f1) (= (f38 f25 ?v0 f39) f1))))
(assert (= (f24 f25 f41 f27 (f32 f33 f34) f39) f1))
(assert (= (f24 f25 f41 f27 (f28 (f29 (f30 f31 (f32 f33 f34)) f35) f42) f37) f1))
(assert (= (f43 f44 f25) f1))
(assert (forall ((?v0 S29) (?v1 S9) (?v2 S26) (?v3 S9)) (not (= (f32 f33 ?v0) (f28 (f29 (f30 f31 ?v1) ?v2) ?v3)))))
(assert (forall ((?v0 S9) (?v1 S26) (?v2 S9) (?v3 S29)) (not (= (f28 (f29 (f30 f31 ?v0) ?v1) ?v2) (f32 f33 ?v3)))))
(assert (= (f24 f25 f41 f27 (f28 (f29 (f30 f31 (f32 f33 f34)) f35) f42) f37) f1))
(assert (= (f24 f25 f41 f27 f42 f39) f1))
(assert (forall ((?v0 S9) (?v1 S26) (?v2 S9) (?v3 S9) (?v4 S26) (?v5 S9)) (= (= (f28 (f29 (f30 f31 ?v0) ?v1) ?v2) (f28 (f29 (f30 f31 ?v3) ?v4) ?v5)) (and (= ?v0 ?v3) (and (= ?v1 ?v4) (= ?v2 ?v5))))))
(assert (forall ((?v0 S29) (?v1 S29)) (= (= (f32 f33 ?v0) (f32 f33 ?v1)) (= ?v0 ?v1))))
(assert (forall ((?v0 S22) (?v1 S23)) (=> (= (f10 (f45 (f46 f25) ?v0) (f21 (f22 f23 f41) f47)) f1) (=> (= (f24 f25 f41 ?v0 f42 ?v1) f1) (exists ((?v2 S23)) (and (= (f24 f25 f26 ?v0 f36 ?v2) f1) (= (f38 f25 ?v2 ?v1) f1)))))))
(assert (forall ((?v0 S21) (?v1 S15) (?v2 S22) (?v3 S9) (?v4 S9)) (=> (= (f24 ?v0 ?v1 ?v2 ?v3 f39) f1) (=> (= (f24 ?v0 ?v1 ?v2 ?v4 f39) f1) (= (f24 ?v0 ?v1 ?v2 (f28 (f29 (f30 f31 ?v3) f40) ?v4) f39) f1)))))
(assert (= (f10 (f45 (f46 f25) f27) (f21 (f22 f23 f41) f47)) f1))
(assert (= (f10 (f45 (f46 f25) f27) (f21 (f22 f23 f41) f47)) f1))
(assert (forall ((?v0 S22) (?v1 S23)) (=> (= (f10 (f45 (f46 f25) ?v0) (f21 (f22 f23 f41) f47)) f1) (=> (= (f24 f25 f41 ?v0 f42 ?v1) f1) (exists ((?v2 S23)) (and (= (f24 f25 f26 ?v0 f36 ?v2) f1) (= (f38 f25 ?v2 ?v1) f1)))))))
(assert (forall ((?v0 S21) (?v1 S23)) (= (f38 ?v0 ?v1 ?v1) f1)))
(assert (= (f6 (f7 (f8 f9 (f14 (f15 f16 f42) (f21 (f22 f23 f41) f47))) (f14 (f15 f16 f36) (f21 (f22 f23 f26) f48))) (f49 f25)) f1))
(assert (forall ((?v0 S11) (?v1 S11)) (= (= (f19 ?v0) (f19 ?v1)) (= ?v0 ?v1))))
(assert (forall ((?v0 S4) (?v1 S4)) (= (= (f12 ?v0) (f12 ?v1)) (= ?v0 ?v1))))
(assert (forall ((?v0 S2) (?v1 S2)) (= (= (f5 ?v0) (f5 ?v1)) (= ?v0 ?v1))))
(assert (forall ((?v0 S21) (?v1 S23) (?v2 S23) (?v3 S23)) (=> (= (f38 ?v0 ?v1 ?v2) f1) (=> (= (f38 ?v0 ?v2 ?v3) f1) (= (f38 ?v0 ?v1 ?v3) f1)))))
(assert (forall ((?v0 S11)) (= (forall ((?v1 S10)) (= (f10 ?v0 ?v1) f1)) (forall ((?v1 S15) (?v2 S16)) (= (f10 ?v0 (f21 (f22 f23 ?v1) ?v2)) f1)))))
(assert (forall ((?v0 S2)) (= (forall ((?v1 S6)) (= (f50 ?v0 ?v1) f1)) (forall ((?v1 S3) (?v2 S3)) (= (f50 ?v0 (f7 (f8 f9 ?v1) ?v2)) f1)))))
(assert (forall ((?v0 S4)) (= (forall ((?v1 S3)) (= (f3 ?v0 ?v1) f1)) (forall ((?v1 S9) (?v2 S10)) (= (f3 ?v0 (f14 (f15 f16 ?v1) ?v2)) f1)))))
(assert (forall ((?v0 S15) (?v1 S16) (?v2 S15) (?v3 S16)) (= (= (f21 (f22 f23 ?v0) ?v1) (f21 (f22 f23 ?v2) ?v3)) (and (= ?v0 ?v2) (= ?v1 ?v3)))))
(assert (forall ((?v0 S3) (?v1 S3) (?v2 S3) (?v3 S3)) (= (= (f7 (f8 f9 ?v0) ?v1) (f7 (f8 f9 ?v2) ?v3)) (and (= ?v0 ?v2) (= ?v1 ?v3)))))
(assert (forall ((?v0 S9) (?v1 S10) (?v2 S9) (?v3 S10)) (= (= (f14 (f15 f16 ?v0) ?v1) (f14 (f15 f16 ?v2) ?v3)) (and (= ?v0 ?v2) (= ?v1 ?v3)))))
(assert (forall ((?v0 S15) (?v1 S16) (?v2 S15) (?v3 S16)) (=> (= (f21 (f22 f23 ?v0) ?v1) (f21 (f22 f23 ?v2) ?v3)) (=> (=> (= ?v0 ?v2) (=> (= ?v1 ?v3) false)) false))))
(assert (forall ((?v0 S3) (?v1 S3) (?v2 S3) (?v3 S3)) (=> (= (f7 (f8 f9 ?v0) ?v1) (f7 (f8 f9 ?v2) ?v3)) (=> (=> (= ?v0 ?v2) (=> (= ?v1 ?v3) false)) false))))
(assert (forall ((?v0 S9) (?v1 S10) (?v2 S9) (?v3 S10)) (=> (= (f14 (f15 f16 ?v0) ?v1) (f14 (f15 f16 ?v2) ?v3)) (=> (=> (= ?v0 ?v2) (=> (= ?v1 ?v3) false)) false))))
(assert (forall ((?v0 S9) (?v1 S10) (?v2 S9) (?v3 S10) (?v4 S21) (?v5 S29) (?v6 S26)) (let ((?v_1 (f49 ?v4)) (?v_0 (f29 (f30 f31 (f32 f33 ?v5)) ?v6))) (=> (= (f6 (f7 (f8 f9 (f14 (f15 f16 ?v0) ?v1)) (f14 (f15 f16 ?v2) ?v3)) ?v_1) f1) (= (f6 (f7 (f8 f9 (f14 (f15 f16 (f28 ?v_0 ?v0)) ?v1)) (f14 (f15 f16 (f28 ?v_0 ?v2)) ?v3)) ?v_1) f1)))))
(assert (forall ((?v0 S9) (?v1 S10) (?v2 S9) (?v3 S10) (?v4 S21) (?v5 S26) (?v6 S9)) (let ((?v_0 (f49 ?v4))) (=> (= (f6 (f7 (f8 f9 (f14 (f15 f16 ?v0) ?v1)) (f14 (f15 f16 ?v2) ?v3)) ?v_0) f1) (= (f6 (f7 (f8 f9 (f14 (f15 f16 (f28 (f29 (f30 f31 ?v0) ?v5) ?v6)) ?v1)) (f14 (f15 f16 (f28 (f29 (f30 f31 ?v2) ?v5) ?v6)) ?v3)) ?v_0) f1)))))
(assert (forall ((?v0 S6)) (=> (forall ((?v1 S3) (?v2 S9) (?v3 S15) (?v4 S16)) (=> (= ?v0 (f7 (f8 f9 ?v1) (f14 (f15 f16 ?v2) (f21 (f22 f23 ?v3) ?v4)))) false)) false)))
(assert (forall ((?v0 S2) (?v1 S6)) (=> (forall ((?v2 S3) (?v3 S9) (?v4 S15) (?v5 S16)) (= (f50 ?v0 (f7 (f8 f9 ?v2) (f14 (f15 f16 ?v3) (f21 (f22 f23 ?v4) ?v5)))) f1)) (= (f50 ?v0 ?v1) f1))))
(check-sat)
(exit)
